swap = 1;

s = 15+1;
n = 4;
perm_count = 24;
init_perm = 
 [| 4, 3, 2, 1, 
  | 3, 4, 2, 1, 
  | 3, 2, 4, 1, 
  | 3, 2, 1, 4, 
  | 4, 2, 3, 1, 
  | 2, 4, 3, 1, 
  | 2, 3, 4, 1, 
  | 2, 3, 1, 4, 
  | 4, 2, 1, 3, 
  | 2, 4, 1, 3, 
  | 2, 1, 4, 3, 
  | 2, 1, 3, 4, 
  | 4, 3, 1, 2, 
  | 3, 4, 1, 2, 
  | 3, 1, 4, 2, 
  | 3, 1, 2, 4, 
  | 4, 1, 3, 2, 
  | 1, 4, 3, 2, 
  | 1, 3, 4, 2, 
  | 1, 3, 2, 4, 
  | 4, 1, 2, 3, 
  | 1, 4, 2, 3, 
  | 1, 2, 4, 3, 
  | 1, 2, 3, 4, |];

% time minizinc sort_syn_minmax.mzn sort_data3_minmax.dzn
% 0m15,777s

% n=4
% > 91m0,535s